sifdecoder -A pc64.lnx.gfo -st   BTS4

 Problem name: BTS4

 Double precision version will be formed

 The objective function uses 2 linear groups
 
 There are 36310 linear equality constraints
 
 There are 36570 variables bounded from below and above 
 
 
 File successfully decoded
 CUTEST: tools (double precision version) compiled successfully
 CUTEst: ipopt (double precision version) compiled successfully

******************************************************************************
This program contains Ipopt, a library for large-scale nonlinear optimization.
 Ipopt is released as open source code under the Eclipse Public License (EPL).
         For more information visit http://projects.coin-or.org/Ipopt
******************************************************************************

This is Ipopt version trunk, running with linear solver ma57.

Number of nonzeros in equality constraint Jacobian...:   136912
Number of nonzeros in inequality constraint Jacobian.:        0
Number of nonzeros in Lagrangian Hessian.............:    36570

Reallocating memory for MA57: lfact (19562173)
Total number of variables............................:    36570
                     variables with only lower bounds:        0
                variables with lower and upper bounds:    36570
                     variables with only upper bounds:        0
Total number of equality constraints.................:    36310
Total number of inequality constraints...............:        0
        inequality constraints with only lower bounds:        0
   inequality constraints with lower and upper bounds:        0
        inequality constraints with only upper bounds:        0

iter    objective    inf_pr   inf_du lg(mu)  ||d||  lg(rg) alpha_du alpha_pr  ls
   0  9.2957479e+03 2.92e+02 2.24e-01  -1.0 0.00e+00    -  0.00e+00 0.00e+00   0
   1  9.2954097e+03 2.90e+02 2.45e-01  -1.0 7.93e+02    -  7.19e-03 7.51e-03h  1
   2  9.2981916e+03 2.85e+02 1.37e+00  -1.0 7.88e+02    -  3.71e-03 1.51e-02h  1
   3  9.3199839e+03 2.75e+02 1.58e+00  -1.0 7.77e+02    -  1.28e-02 3.58e-02h  1
   4  9.6059911e+03 2.34e+02 3.80e+00  -1.0 7.53e+02    -  4.50e-02 1.50e-01h  1
   5  1.0465686e+04 1.79e+02 2.78e+00  -1.0 6.45e+02    -  6.72e-02 2.37e-01h  1
   6  1.3084487e+04 8.49e+01 2.98e+00  -1.0 4.94e+02    -  1.88e-02 5.25e-01h  1
   7  1.5678036e+04 1.87e+01 1.71e+00  -1.0 2.36e+02    -  1.55e-01 7.79e-01h  1
   8  1.6423617e+04 4.84e-09 1.01e+00  -1.0 5.20e+01    -  1.16e-01 1.00e+00h  1
   9  1.6334361e+04 3.89e-09 3.50e-01  -1.0 3.96e+01    -  5.31e-01 1.00e+00f  1
iter    objective    inf_pr   inf_du lg(mu)  ||d||  lg(rg) alpha_du alpha_pr  ls
  10  1.6308121e+04 1.13e-09 1.56e-01  -1.0 2.20e+01    -  5.55e-01 1.00e+00f  1
  11  1.6308714e+04 1.60e-10 2.80e-03  -1.0 2.03e+00    -  9.82e-01 1.00e+00f  1
  12  1.6311556e+04 5.36e-12 2.67e-04  -1.0 4.17e+01    -  9.90e-01 1.00e+00f  1
  13  1.6311706e+04 2.40e-12 2.51e-03  -1.0 1.57e+03    -  9.90e-01 5.00e-01f  2
  14  1.6311637e+04 3.41e-13 5.02e-13  -1.0 1.91e+02    -  1.00e+00 1.00e+00f  1
  15  1.6121493e+04 7.93e-11 5.46e-03  -2.5 3.12e+02    -  1.00e+00 9.06e-01f  1
  16  1.6098448e+04 4.36e-11 1.44e-10  -2.5 1.74e+02    -  1.00e+00 1.00e+00f  1
  17  1.6092452e+04 6.03e-12 3.57e-11  -3.8 8.77e+01    -  1.00e+00 1.00e+00f  1
  18  1.6092444e+04 6.25e-13 8.10e-13  -3.8 4.30e+01    -  1.00e+00 1.00e+00f  1
  19  1.6092114e+04 1.71e-13 3.86e-12  -5.7 2.33e+01    -  1.00e+00 1.00e+00f  1
iter    objective    inf_pr   inf_du lg(mu)  ||d||  lg(rg) alpha_du alpha_pr  ls
  20  1.6092114e+04 8.53e-14 1.15e-15  -5.7 1.16e+01    -  1.00e+00 1.00e+00f  1
  21  1.6092114e+04 1.14e-13 1.68e-16  -5.7 5.71e+00    -  1.00e+00 1.00e+00f  1
  22  1.6092110e+04 1.71e-13 1.55e-06  -8.6 1.55e-02  -4.0 1.00e+00 1.00e+00f  1
  23  1.6092110e+04 5.68e-14 1.54e-06  -8.6 4.61e-02  -4.5 1.00e+00 1.00e+00h  1
  24  1.6092110e+04 1.14e-13 1.50e-06  -8.6 1.35e-01  -5.0 1.00e+00 1.00e+00h  1
  25  1.6092110e+04 1.14e-13 1.41e-06  -8.6 3.79e-01  -5.4 1.00e+00 1.00e+00h  1
  26  1.6092110e+04 1.14e-13 1.16e-06  -8.6 9.43e-01  -5.9 1.00e+00 1.00e+00h  1
  27  1.6092110e+04 1.14e-13 7.17e-07  -8.6 1.74e+00  -6.4 1.00e+00 1.00e+00h  1
  28  1.6092110e+04 1.14e-13 2.50e-07  -8.6 1.82e+00  -6.9 1.00e+00 1.00e+00h  1
